1720
28 73 57 61 74 37 48 80 86 75 92 49 85 95 35 76 56 63 16 69 84 67 3 44 97 38 90 4 46 62 52 58 6 11 78 89 10 24 53 34 14 99 25 21 60 39 20 83 29 42 77 36 50 31 71 32 5 18 47 54 40 94 96 66 23 82 43 13 27 64 88 7 68 26 30 9 15 2 19 12 1 33 8 55 87 51 93 41 98 70 72 59 45 22 17 91 65 81 79 
